n_res = 4;
rc = [ 28, 28, 26, 31 ];
n_tasks = 90;
d = [ 4, 1, 7, 4, 1, 2, 9, 6, 5, 3, 4, 2, 5, 8, 10, 1, 5, 3, 8, 5, 4, 4, 1, 4, 7, 3, 10, 3, 9, 10, 2, 7, 9, 3, 3, 6, 1, 8, 8, 8, 9, 7, 9, 1, 8, 7, 7, 3, 4, 5, 3, 6, 9, 2, 5, 6, 6, 7, 10, 9, 3, 2, 8, 5, 9, 10, 4, 3, 2, 4, 7, 6, 6, 1, 6, 4, 7, 7, 1, 2, 9, 1, 10, 2, 7, 10, 4, 3, 3, 3 ];
rr = [| 4, 5, 3, 6, 9, 8, 2, 3, 8, 9, 8, 10, 5, 3, 1, 8, 10, 5, 7, 5, 2, 8, 6, 10, 4, 10, 6, 8, 3, 4, 6, 7, 7, 2, 5, 4, 5, 5, 8, 2, 9, 6, 1, 6, 3, 2, 9, 10, 3, 4, 6, 6, 4, 2, 2, 9, 4, 9, 10, 5, 9, 5, 4, 10, 1, 9, 9, 5, 10, 9, 5, 9, 3, 6, 9, 6, 5, 3, 4, 10, 10, 4, 6, 6, 6, 3, 6, 5, 6, 2
      | 10, 8, 9, 9, 10, 10, 7, 5, 1, 2, 4, 5, 9, 4, 1, 8, 6, 6, 2, 9, 7, 4, 8, 9, 8, 6, 9, 10, 6, 1, 5, 1, 4, 3, 7, 8, 3, 6, 6, 7, 1, 6, 8, 8, 6, 8, 8, 10, 4, 2, 4, 8, 8, 1, 2, 5, 3, 7, 6, 10, 6, 1, 3, 2, 4, 6, 6, 10, 6, 8, 1, 7, 4, 5, 8, 1, 6, 5, 10, 10, 7, 9, 1, 9, 2, 8, 1, 4, 6, 7
      | 5, 9, 2, 10, 10, 3, 9, 5, 8, 8, 4, 5, 1, 8, 4, 4, 3, 1, 9, 6, 3, 5, 9, 6, 1, 9, 3, 2, 3, 10, 4, 4, 2, 2, 3, 8, 10, 1, 4, 9, 4, 10, 10, 8, 3, 8, 7, 7, 1, 5, 10, 4, 5, 7, 8, 6, 1, 8, 4, 5, 9, 6, 8, 5, 10, 5, 1, 5, 6, 7, 10, 9, 3, 10, 1, 9, 7, 1, 4, 3, 10, 8, 1, 6, 5, 7, 4, 1, 10, 10
      | 1, 8, 8, 9, 4, 1, 3, 5, 10, 2, 1, 3, 6, 10, 9, 9, 6, 7, 5, 9, 8, 4, 2, 4, 4, 7, 3, 10, 8, 10, 3, 7, 2, 9, 9, 4, 8, 10, 8, 1, 1, 4, 7, 4, 2, 5, 3, 2, 2, 10, 1, 7, 4, 2, 5, 2, 4, 6, 5, 1, 9, 2, 3, 7, 6, 6, 7, 2, 7, 8, 7, 1, 6, 7, 2, 10, 8, 6, 7, 10, 10, 3, 8, 1, 1, 2, 1, 8, 10, 9 |];
suc = [ { 19 },
       { 4, 6, 24 },
       { 7, 10, 16 },
       { 5, 17, 18 },
       { 8, 9, 12 },
       { 11, 34, 65 },
       { 22, 32, 69 },
       { 50, 57 },
       { 21, 35, 45 },
       { 15, 39 },
       { 14, 30, 37 },
       { 13 },
       { 23, 59 },
       { 20, 27, 28 },
       { 48 },
       { 75 },
       { 42, 60 },
       { 79 },
       { 26, 66 },
       { 25, 62, 64 },
       { 33, 55 },
       { 53 },
       { 67 },
       { 31 },
       { 38 },
       { 29, 36, 46 },
       { 40 },
       { 41 },
       { 52, 70 },
       { 31 },
       { 51 },
       { 44, 47, 56 },
       { 43 },
       { 62, 82 },
       { 63 },
       { 41, 68, 81 },
       { 49, 68, 76 },
       { 86 },
       { 54 },
       { 73, 87 },
       { 61 },
       { 43 },
       { 77 },
       { 75 },
       { 79 },
       { 52 },
       { 64 },
       { 61, 83, 90 },
       { 85 },
       { 84 },
       { 80 },
       { 63 },
       { 85 },
       { 60 },
       { 71 },
       { 58, 89 },
       { 71, 74 },
       { 59 },
       { 68, 76 },
       { 88 },
       { 89 },
       { 73 },
       { 69 },
       { 71 },
       { 84 },
       { 78 },
       { 74, 87 },
       { 77, 85 },
       { 72 },
       { 81 },
       { 78 },
       { 73 },
       { 74, 89 },
       { 80 },
       { 76 },
       { 82 },
       { 82 },
       { 84 },
       { 88 },
       { 83 },
       { 87 },
       { 83 },
       { 86 },
       { 90 },
       { 86 },
       { 88 },
       { 90 },
       {  },
       {  },
       {  } ];
